c turning on binary mode checking
c parsing input formula with 259840 variables and 1039914 clauses
c finished parsing, read 30720403 bytes from proof file
c detected empty clause; start verification via backward checking
c 57181 of 1039914 clauses in core                            
c 88184 of 706812 lemmas in core using 1019582 resolution steps
c 0 RAT lemmas in core; 11054 redundant literals in core lemmas
s VERIFIED
c verification time: 6.428 seconds
